
Gurobi 12.0.0 (win64) logging started Tue Dec 30 14:44:39 2025

Set parameter LogFile to value "Storage_s/Logs/log_____________2025_12_30_14_44_39.log"
Set parameter MIPGap to value 0.01
Set parameter OutputFlag to value 1
Gurobi Optimizer version 12.0.0 build v12.0.0rc1 (win64 - Windows 10.0 (19045.2))

CPU model: Intel(R) Core(TM) i7-9750H CPU @ 2.60GHz, instruction set [SSE2|AVX|AVX2]
Thread count: 6 physical cores, 12 logical processors, using up to 12 threads

Non-default parameters:
MIPGap  0.01
MIPFocus  1

Optimize a model with 4526 rows, 1131 columns and 12254 nonzeros
Model fingerprint: 0xa0f9b8c9
Variable types: 35 continuous, 1096 integer (676 binary)
Coefficient statistics:
  Matrix range     [2e-01, 1e+03]
  Objective range  [1e+02, 4e+03]
  Bounds range     [1e+00, 1e+00]
  RHS range        [1e+00, 2e+03]
Found heuristic solution: objective 10160.000000
Presolve removed 2870 rows and 207 columns
Presolve time: 0.02s
Presolved: 1656 rows, 924 columns, 7854 nonzeros
Variable types: 35 continuous, 889 integer (609 binary)

Root relaxation: objective 4.319100e+03, 1606 iterations, 0.07 seconds (0.06 work units)

    Nodes    |    Current Node    |     Objective Bounds      |     Work
 Expl Unexpl |  Obj  Depth IntInf | Incumbent    BestBd   Gap | It/Node Time

     0     0 4319.10000    0   22 10160.0000 4319.10000  57.5%     -    0s
H    0     0                    9130.0000000 4319.10000  52.7%     -    0s
H    0     0                    6803.0000000 4319.10000  36.5%     -    0s
H    0     0                    6743.0000000 4319.10000  35.9%     -    0s
H    0     0                    6663.0000000 4326.78908  35.1%     -    0s
     0     0 4326.78908    0   60 6663.00000 4326.78908  35.1%     -    0s
     0     0 4373.16471    0   32 6663.00000 4373.16471  34.4%     -    0s
     0     0 4374.84500    0   40 6663.00000 4374.84500  34.3%     -    0s
     0     0 4374.84500    0   40 6663.00000 4374.84500  34.3%     -    0s
     0     0 4476.30264    0   79 6663.00000 4476.30264  32.8%     -    0s
H    0     0                    6263.0000000 4488.04602  28.3%     -    0s
     0     0 4488.04602    0   91 6263.00000 4488.04602  28.3%     -    0s
     0     0 4517.36529    0   91 6263.00000 4517.36529  27.9%     -    0s
     0     0 4517.40645    0  107 6263.00000 4517.40645  27.9%     -    0s
     0     0 4517.40646    0  110 6263.00000 4517.40646  27.9%     -    0s
     0     0 4565.81335    0  148 6263.00000 4565.81335  27.1%     -    0s
     0     0 4614.46079    0  166 6263.00000 4614.46079  26.3%     -    0s
H    0     0                    5997.0000000 4620.95580  22.9%     -    0s
     0     0 4620.95580    0  169 5997.00000 4620.95580  22.9%     -    0s
     0     0 4625.90701    0  165 5997.00000 4625.90701  22.9%     -    0s
     0     0 4627.50533    0  188 5997.00000 4627.50533  22.8%     -    0s
     0     0 4629.66692    0  185 5997.00000 4629.66692  22.8%     -    0s
     0     0 4631.16366    0  205 5997.00000 4631.16366  22.8%     -    0s
     0     0 4631.52350    0  208 5997.00000 4631.52350  22.8%     -    0s
     0     0 4631.57377    0  212 5997.00000 4631.57377  22.8%     -    0s
     0     0 4631.57377    0  213 5997.00000 4631.57377  22.8%     -    0s
     0     0 4710.66182    0  136 5997.00000 4710.66182  21.4%     -    0s
     0     0 4721.01080    0  188 5997.00000 4721.01080  21.3%     -    0s
     0     0 4726.67407    0  191 5997.00000 4726.67407  21.2%     -    0s
     0     0 4728.40792    0  193 5997.00000 4728.40792  21.2%     -    0s
     0     0 4731.54643    0  208 5997.00000 4731.54643  21.1%     -    0s
     0     0 4733.26166    0  190 5997.00000 4733.26166  21.1%     -    0s
     0     0 4733.56457    0  158 5997.00000 4733.56457  21.1%     -    0s
     0     0 4733.61892    0  194 5997.00000 4733.61892  21.1%     -    0s
     0     0 4733.87137    0  210 5997.00000 4733.87137  21.1%     -    0s
     0     0 4733.88097    0  210 5997.00000 4733.88097  21.1%     -    0s
     0     0 4740.15641    0  208 5997.00000 4740.15641  21.0%     -    0s
     0     0 4741.19213    0   18 5997.00000 4741.19213  20.9%     -    1s
     0     0 4741.19213    0   83 5997.00000 4741.19213  20.9%     -    1s
     0     0 4741.19213    0   79 5997.00000 4741.19213  20.9%     -    1s
     0     0 4741.19213    0   96 5997.00000 4741.19213  20.9%     -    1s
     0     0 4741.19213    0   96 5997.00000 4741.19213  20.9%     -    1s
     0     0 4741.19213    0  110 5997.00000 4741.19213  20.9%     -    1s
     0     0 4741.19213    0  152 5997.00000 4741.19213  20.9%     -    1s
     0     0 4741.19213    0  149 5997.00000 4741.19213  20.9%     -    1s
     0     0 4741.19213    0  165 5997.00000 4741.19213  20.9%     -    1s
     0     0 4741.19213    0  169 5997.00000 4741.19213  20.9%     -    1s
     0     0 4741.19213    0  166 5997.00000 4741.19213  20.9%     -    1s
     0     0 4741.19213    0  159 5997.00000 4741.19213  20.9%     -    1s
     0     0 4741.19213    0  163 5997.00000 4741.19213  20.9%     -    1s
     0     0 4741.19213    0  169 5997.00000 4741.19213  20.9%     -    1s
     0     0 4741.19213    0  160 5997.00000 4741.19213  20.9%     -    1s
     0     0 4741.19213    0  171 5997.00000 4741.19213  20.9%     -    1s
     0     0 4741.19213    0  144 5997.00000 4741.19213  20.9%     -    1s
     0     0 4741.19213    0  151 5997.00000 4741.19213  20.9%     -    1s
H    0     0                    5897.0000000 4741.19213  19.6%     -    1s
     0     0 4741.19213    0  203 5897.00000 4741.19213  19.6%     -    1s
     0     0 4741.19213    0  210 5897.00000 4741.19213  19.6%     -    1s
     0     0 4741.29028    0  203 5897.00000 4741.29028  19.6%     -    1s
     0     0 4741.86335    0  199 5897.00000 4741.86335  19.6%     -    1s
     0     0 4742.00863    0  213 5897.00000 4742.00863  19.6%     -    1s
     0     0 4742.06934    0  225 5897.00000 4742.06934  19.6%     -    1s
     0     0 4742.24205    0  238 5897.00000 4742.24205  19.6%     -    1s
     0     0 4742.60460    0  243 5897.00000 4742.60460  19.6%     -    1s
     0     0 4742.62120    0  246 5897.00000 4742.62120  19.6%     -    1s
     0     0 4756.13581    0  191 5897.00000 4756.13581  19.3%     -    1s
     0     0 4758.54338    0  176 5897.00000 4758.54338  19.3%     -    1s
     0     0 4761.71032    0  184 5897.00000 4761.71032  19.3%     -    1s
     0     0 4762.08701    0  200 5897.00000 4762.08701  19.2%     -    1s
     0     0 4762.55526    0  201 5897.00000 4762.55526  19.2%     -    1s
     0     0 4762.55526    0  209 5897.00000 4762.55526  19.2%     -    1s
     0     0 4764.73666    0  202 5897.00000 4764.73666  19.2%     -    1s
     0     0 4766.09405    0  188 5897.00000 4766.09405  19.2%     -    1s
     0     0 4766.70680    0  190 5897.00000 4766.70680  19.2%     -    1s
     0     0 4767.22121    0  204 5897.00000 4767.22121  19.2%     -    1s
     0     0 4767.63152    0  228 5897.00000 4767.63152  19.2%     -    1s
     0     0 4767.71497    0  230 5897.00000 4767.71497  19.2%     -    1s
     0     0 4767.90358    0  252 5897.00000 4767.90358  19.1%     -    1s
     0     0 4767.93922    0  253 5897.00000 4767.93922  19.1%     -    1s
     0     0 4770.01831    0  158 5897.00000 4770.01831  19.1%     -    1s
     0     0 4770.01831    0   23 5897.00000 4770.01831  19.1%     -    1s
     0     0 4770.01831    0   93 5897.00000 4770.01831  19.1%     -    2s
     0     0 4770.01831    0  107 5897.00000 4770.01831  19.1%     -    2s
     0     0 4770.01831    0  107 5897.00000 4770.01831  19.1%     -    2s
     0     0 4770.01831    0  130 5897.00000 4770.01831  19.1%     -    2s
     0     0 4770.01831    0  130 5897.00000 4770.01831  19.1%     -    2s
     0     0 4770.01831    0  141 5897.00000 4770.01831  19.1%     -    2s
     0     0 4770.01831    0  161 5897.00000 4770.01831  19.1%     -    2s
     0     0 4770.01831    0  156 5897.00000 4770.01831  19.1%     -    2s
     0     0 4770.01831    0  141 5897.00000 4770.01831  19.1%     -    2s
     0     0 4770.01831    0  142 5897.00000 4770.01831  19.1%     -    2s
     0     0 4770.01831    0  128 5897.00000 4770.01831  19.1%     -    2s
     0     0 4770.01831    0  158 5897.00000 4770.01831  19.1%     -    2s
     0     0 4770.01831    0  131 5897.00000 4770.01831  19.1%     -    2s
     0     0 4770.01831    0  139 5897.00000 4770.01831  19.1%     -    2s
     0     0 4770.01831    0  173 5897.00000 4770.01831  19.1%     -    2s
     0     0 4770.01831    0  163 5897.00000 4770.01831  19.1%     -    2s
     0     0 4770.01831    0  170 5897.00000 4770.01831  19.1%     -    2s
     0     0 4770.01831    0  188 5897.00000 4770.01831  19.1%     -    2s
     0     0 4770.01831    0  193 5897.00000 4770.01831  19.1%     -    2s
     0     0 4770.01831    0  198 5897.00000 4770.01831  19.1%     -    2s
     0     0 4770.01831    0  209 5897.00000 4770.01831  19.1%     -    2s
     0     0 4770.01831    0  213 5897.00000 4770.01831  19.1%     -    2s
     0     0 4770.69801    0  182 5897.00000 4770.69801  19.1%     -    2s
     0     0 4770.84556    0  211 5897.00000 4770.84556  19.1%     -    2s
     0     0 4771.29432    0  186 5897.00000 4771.29432  19.1%     -    2s
     0     0 4771.29432    0  202 5897.00000 4771.29432  19.1%     -    2s
     0     0 4784.97954    0  159 5897.00000 4784.97954  18.9%     -    2s
     0     0 4786.22496    0  159 5897.00000 4786.22496  18.8%     -    2s
     0     0 4786.22496    0  177 5897.00000 4786.22496  18.8%     -    2s
     0     0 4790.38095    0  143 5897.00000 4790.38095  18.8%     -    2s
     0     0 4792.97143    0  151 5897.00000 4792.97143  18.7%     -    2s
     0     0 4793.03333    0  150 5897.00000 4793.03333  18.7%     -    2s
     0     0 4793.07143    0  165 5897.00000 4793.07143  18.7%     -    2s
     0     0 4793.42486    0  112 5897.00000 4793.42486  18.7%     -    2s
     0     0 4793.42486    0   18 5897.00000 4793.42486  18.7%     -    2s
     0     0 4793.42486    0   56 5897.00000 4793.42486  18.7%     -    2s
     0     0 4793.42486    0   49 5897.00000 4793.42486  18.7%     -    2s
     0     0 4793.42486    0   99 5897.00000 4793.42486  18.7%     -    2s
     0     0 4793.42486    0  104 5897.00000 4793.42486  18.7%     -    2s
     0     0 4793.42486    0  112 5897.00000 4793.42486  18.7%     -    2s
     0     0 4793.42486    0  115 5897.00000 4793.42486  18.7%     -    2s
     0     0 4793.42486    0  133 5897.00000 4793.42486  18.7%     -    2s
     0     0 4793.42486    0  136 5897.00000 4793.42486  18.7%     -    2s
     0     0 4793.42486    0  158 5897.00000 4793.42486  18.7%     -    3s
     0     0 4793.42486    0  117 5897.00000 4793.42486  18.7%     -    3s
     0     0 4793.42486    0  107 5897.00000 4793.42486  18.7%     -    3s
     0     0 4793.42486    0  104 5897.00000 4793.42486  18.7%     -    3s
     0     0 4793.42486    0  116 5897.00000 4793.42486  18.7%     -    3s
     0     0 4793.42486    0  151 5897.00000 4793.42486  18.7%     -    3s
     0     0 4793.42486    0  148 5897.00000 4793.42486  18.7%     -    3s
     0     0 4793.48949    0  127 5897.00000 4793.48949  18.7%     -    3s
     0     0 4793.57143    0  114 5897.00000 4793.57143  18.7%     -    3s
     0     0 4793.57324    0  129 5897.00000 4793.57324  18.7%     -    3s
     0     0 4793.61007    0  151 5897.00000 4793.61007  18.7%     -    3s
     0     0 4793.63975    0  134 5897.00000 4793.63975  18.7%     -    3s
     0     0 4793.64079    0  175 5897.00000 4793.64079  18.7%     -    3s
     0     0 4793.64079    0  181 5897.00000 4793.64079  18.7%     -    3s
     0     0 4793.64184    0  120 5897.00000 4793.64184  18.7%     -    3s
     0     2 4793.64184    0  113 5897.00000 4793.64184  18.7%     -    3s
  1272   463 5141.66667   12   40 5897.00000 5000.44018  15.2%  86.9    5s
  4253   845 infeasible   23      5897.00000 5075.81798  13.9%  91.3   10s
  9186   809 5680.07214   26  105 5897.00000 5288.72370  10.3%  87.4   15s

Cutting planes:
  Learned: 114
  Gomory: 5
  Cover: 179
  MIR: 123
  StrongCG: 10
  Flow cover: 124
  Inf proof: 3
  Zero half: 1
  Network: 8
  RLT: 7
  Relax-and-lift: 14

Explored 14098 nodes (1197474 simplex iterations) in 18.87 seconds (12.92 work units)
Thread count was 12 (of 12 available processors)

Solution count 8: 5897 5997 6263 ... 10160

Optimal solution found (tolerance 1.00e-02)
Best objective 5.897000000000e+03, best bound 5.897000000000e+03, gap 0.0000%
